(set-logic QF_LRA)
(declare-fun X0 () Real )
(declare-fun Y0 () Real )
(declare-fun X1 () Real )
(declare-fun Y1 () Real )
(declare-fun X2 () Real )
(declare-fun Y2 () Real )
(declare-fun X3 () Real )
(declare-fun Y3 () Real )
(declare-fun X4 () Real )
(declare-fun Y4 () Real )
(declare-fun X5 () Real )
(declare-fun Y5 () Real )
(declare-fun Z () Real )
(declare-fun k () Real )
(assert (let
(( $goal (>= Z k) ))
(let
((
$phi ( and 
( or ( <= ( + X0 13 ) X1 )  ( <= ( + X1 87 ) X0 )  ( <= ( + Y0 8 ) Y1 )  ( <= ( + Y1 91 ) Y0 )  )
( or ( <= ( + X0 13 ) X2 )  ( <= ( + X2 42 ) X0 )  ( <= ( + Y0 8 ) Y2 )  ( <= ( + Y2 15 ) Y0 )  )
( or ( <= ( + X0 13 ) X3 )  ( <= ( + X3 93 ) X0 )  ( <= ( + Y0 8 ) Y3 )  ( <= ( + Y3 1 ) Y0 )  )
( or ( <= ( + X0 13 ) X4 )  ( <= ( + X4 48 ) X0 )  ( <= ( + Y0 8 ) Y4 )  ( <= ( + Y4 1 ) Y0 )  )
( or ( <= ( + X0 13 ) X5 )  ( <= ( + X5 39 ) X0 )  ( <= ( + Y0 8 ) Y5 )  ( <= ( + Y5 94 ) Y0 )  )
( or ( <= ( + X1 87 ) X2 )  ( <= ( + X2 42 ) X1 )  ( <= ( + Y1 91 ) Y2 )  ( <= ( + Y2 15 ) Y1 )  )
( or ( <= ( + X1 87 ) X3 )  ( <= ( + X3 93 ) X1 )  ( <= ( + Y1 91 ) Y3 )  ( <= ( + Y3 1 ) Y1 )  )
( or ( <= ( + X1 87 ) X4 )  ( <= ( + X4 48 ) X1 )  ( <= ( + Y1 91 ) Y4 )  ( <= ( + Y4 1 ) Y1 )  )
( or ( <= ( + X1 87 ) X5 )  ( <= ( + X5 39 ) X1 )  ( <= ( + Y1 91 ) Y5 )  ( <= ( + Y5 94 ) Y1 )  )
( or ( <= ( + X2 42 ) X3 )  ( <= ( + X3 93 ) X2 )  ( <= ( + Y2 15 ) Y3 )  ( <= ( + Y3 1 ) Y2 )  )
( or ( <= ( + X2 42 ) X4 )  ( <= ( + X4 48 ) X2 )  ( <= ( + Y2 15 ) Y4 )  ( <= ( + Y4 1 ) Y2 )  )
( or ( <= ( + X2 42 ) X5 )  ( <= ( + X5 39 ) X2 )  ( <= ( + Y2 15 ) Y5 )  ( <= ( + Y5 94 ) Y2 )  )
( or ( <= ( + X3 93 ) X4 )  ( <= ( + X4 48 ) X3 )  ( <= ( + Y3 1 ) Y4 )  ( <= ( + Y4 1 ) Y3 )  )
( or ( <= ( + X3 93 ) X5 )  ( <= ( + X5 39 ) X3 )  ( <= ( + Y3 1 ) Y5 )  ( <= ( + Y5 94 ) Y3 )  )
( or ( <= ( + X4 48 ) X5 )  ( <= ( + X5 39 ) X4 )  ( <= ( + Y4 1 ) Y5 )  ( <= ( + Y5 94 ) Y4 )  )
( >= X0 0)
( <= ( + X0 13) Z)
( >= Y0 0)
( <= ( + Y0 8 ) 122)
( >= X1 0)
( <= ( + X1 87) Z)
( >= Y1 0)
( <= ( + Y1 91 ) 122)
( >= X2 0)
( <= ( + X2 42) Z)
( >= Y2 0)
( <= ( + Y2 15 ) 122)
( >= X3 0)
( <= ( + X3 93) Z)
( >= Y3 0)
( <= ( + Y3 1 ) 122)
( >= X4 0)
( <= ( + X4 48) Z)
( >= Y4 0)
( <= ( + Y4 1 ) 122)
( >= X5 0)
( <= ( + X5 39) Z)
( >= Y5 0)
( <= ( + Y5 94 ) 122)
) )
)(=> $phi $goal))))